slcomp18/bench-smt2/qf_shid_entl/skl3-vc02.smt2
(set-logic QF_SHID)

(set-info :source |
C. Enea, O. Lengal, M. Sighireanu, and T. Vojnar
[Compositional Entailment Checking for a Fragment of Separation Logic]
http://www.liafa.univ-paris-diderot.fr/spen
|)
(set-info :smt-lib-version 2.0)
(set-info :category "crafted")
(set-info :status sat)


; Sorts for locations, one by cell sort
(declare-sort RefSL3_t 0)

; Types of cells in the heap

(declare-datatypes (
	(SL3_t 0)
	) (
	((c_SL3_t (n1 RefSL3_t) (n2 RefSL3_t) (n3 RefSL3_t) ))
	)
)

; Type of heap

(declare-heap (RefSL3_t SL3_t) 
)

(define-fun-rec skl1 ((hd RefSL3_t)(ex RefSL3_t)) Bool
	(or 
		(and 
			(= hd ex)
			(_ emp RefSL3_t SL3_t)
		)

		(exists ((tl RefSL3_t))
	 
		(and 
			(distinct hd ex)
		(sep 
			(pto hd (c_SL3_t tl (as nil RefSL3_t) (as nil RefSL3_t) ))
			(skl1 tl ex )
		)

		)

		)

	)
)

(define-fun-rec skl2 ((hd RefSL3_t)(ex RefSL3_t)) Bool
	(or 
		(and 
			(= hd ex)
			(_ emp RefSL3_t SL3_t)
		)

		(exists ((tl RefSL3_t)(Z1 RefSL3_t))
	 
		(and 
			(distinct hd ex)
		(sep 
			(pto hd (c_SL3_t Z1 tl (as nil RefSL3_t) ))
			(skl1 Z1 tl )
			(skl2 tl ex )
		)

		)

		)

	)
)

(define-fun-rec skl3 ((hd RefSL3_t)(ex RefSL3_t)) Bool
	(or 
		(and 
			(= hd ex)
			(_ emp RefSL3_t SL3_t)
		)

		(exists ((tl RefSL3_t)(Z1 RefSL3_t)(Z2 RefSL3_t))
	 
		(and 
			(distinct hd ex)
		(sep 
			(pto hd (c_SL3_t Z1 Z2 tl ))
			(skl1 Z1 Z2 )
			(skl2 Z2 tl )
			(skl3 tl ex )
		)

		)

		)

	)
)


(check-sat) 
;; variables
(declare-const x1 RefSL3_t)
(declare-const x1_2 RefSL3_t)
(declare-const x2 RefSL3_t)

(assert 
		(sep 
			(pto x1 (c_SL3_t x2 x1_2 x2 ))
			(skl2 x1_2 x2 )
			(skl3 x2 (as nil RefSL3_t) )
		)

)

(assert (not 
			(skl3 x1 (as nil RefSL3_t) )
))

(check-sat)
